\ Model knapsack_100_10_2
\ LP format - for model browsing. Use MPS format to capture full model detail.
\ Signature: 0x4be735ad6dbe4da2
Minimize
  36.21 x[0] + 171.02 x[1] + 14.7 x[2] + 201.07 x[3] + 152.74 x[4]
   + 22.76 x[5] + 87.07 x[6] + 176.61 x[7] + 37.78 x[8] + 28.38 x[9]
   + 143.62 x[10] + 161.05 x[11] + 49.07 x[12] + 71.38 x[13] + 124.65 x[14]
   + 104.41 x[15] + 154.38 x[16] + 102.14 x[17] + 89.09 x[18] + 26.38 x[19]
   + 24.91 x[20] + 70.34 x[21] + 137.95 x[22] + 20.67 x[23] + 94.11 x[24]
   + 19.76 x[25] + 70.58 x[26] + 178.85 x[27] + 54.37 x[28] + 209.87 x[29]
   + 151.11 x[30] + 118.44 x[31] + 74.35 x[32] + 89.47 x[33] + 94.78 x[34]
   + 64.69 x[35] + 51.19 x[36] + 172.65 x[37] + 121.68 x[38] + 53.8 x[39]
   + 122.32 x[40] + 67.47 x[41] + 98.93 x[42] + 126.33 x[43] + 63.47 x[44]
   + 162.87 x[45] + 76.68 x[46] + 97.36 x[47] + 80.72 x[48] + 38.11 x[49]
   + 151.04 x[50] + 46.97 x[51] + 34.75 x[52] + 84.93 x[53] + 103.36 x[54]
   + 36.58 x[55] + 205.36 x[56] + 109.28 x[57] + 25.51 x[58] + 116.75 x[59]
   + 159.75 x[60] + 111.13 x[61] + 46.3 x[62] + 112.95 x[63] + 98.85 x[64]
   + 113.33 x[65] + 85.47 x[66] + 106.09 x[67] + 127.68 x[68]
   + 165.52 x[69] + 28.06 x[70] + 92.55 x[71] + 28.32 x[72] + 60.75 x[73]
   + 78.76 x[74] + 76.85 x[75] + 63.95 x[76] + 134.11 x[77] + 97.67 x[78]
   + 95.73 x[79] + 122.48 x[80] + 105.62 x[81] + 177 x[82] + 97.47 x[83]
   + 92.79 x[84] + 52.7 x[85] + 77.36 x[86] + 100.94 x[87] + 76.66 x[88]
   + 33.29 x[89] + 191.17 x[90] + 33.57 x[91] + 101.81 x[92] + 106.92 x[93]
   + 24.01 x[94] + 111.12 x[95] + 90.37 x[96] + 40.16 x[97] + 97.94 x[98]
   + 136.05 x[99] - 349 y[0] - 1007 y[1] - 137 y[2] - 1072 y[3] - 919 y[4]
   - 121 y[5] - 488 y[6] - 973 y[7] - 313 y[8] - 155 y[9] - 1007 y[10]
   - 874 y[11] - 282 y[12] - 555 y[13] - 625 y[14] - 653 y[15] - 906 y[16]
   - 920 y[17] - 855 y[18] - 212 y[19] - 161 y[20] - 392 y[21] - 936 y[22]
   - 204 y[23] - 545 y[24] - 132 y[25] - 697 y[26] - 971 y[27] - 482 y[28]
   - 1056 y[29] - 818 y[30] - 717 y[31] - 658 y[32] - 543 y[33] - 589 y[34]
   - 635 y[35] - 310 y[36] - 1060 y[37] - 1003 y[38] - 459 y[39]
   - 794 y[40] - 579 y[41] - 621 y[42] - 648 y[43] - 553 y[44] - 1077 y[45]
   - 516 y[46] - 785 y[47] - 586 y[48] - 338 y[49] - 789 y[50] - 272 y[51]
   - 191 y[52] - 545 y[53] - 629 y[54] - 201 y[55] - 1091 y[56] - 659 y[57]
   - 228 y[58] - 1058 y[59] - 887 y[60] - 1022 y[61] - 401 y[62]
   - 1089 y[63] - 889 y[64] - 837 y[65] - 802 y[66] - 576 y[67] - 761 y[68]
   - 861 y[69] - 150 y[70] - 678 y[71] - 145 y[72] - 474 y[73] - 554 y[74]
   - 392 y[75] - 377 y[76] - 696 y[77] - 676 y[78] - 501 y[79] - 956 y[80]
   - 645 y[81] - 911 y[82] - 687 y[83] - 667 y[84] - 403 y[85] - 691 y[86]
   - 996 y[87] - 572 y[88] - 220 y[89] - 976 y[90] - 292 y[91] - 935 y[92]
   - 822 y[93] - 151 y[94] - 870 y[95] - 636 y[96] - 278 y[97] - 677 y[98]
   - 739 y[99]
Subject To
 primal_upper: 249 y[0] + 907 y[1] + 37 y[2] + 972 y[3] + 819 y[4]
   + 21 y[5] + 388 y[6] + 873 y[7] + 213 y[8] + 55 y[9] + 907 y[10]
   + 774 y[11] + 182 y[12] + 455 y[13] + 525 y[14] + 553 y[15] + 806 y[16]
   + 820 y[17] + 755 y[18] + 112 y[19] + 61 y[20] + 292 y[21] + 836 y[22]
   + 104 y[23] + 445 y[24] + 32 y[25] + 597 y[26] + 871 y[27] + 382 y[28]
   + 956 y[29] + 718 y[30] + 617 y[31] + 558 y[32] + 443 y[33] + 489 y[34]
   + 535 y[35] + 210 y[36] + 960 y[37] + 903 y[38] + 359 y[39] + 694 y[40]
   + 479 y[41] + 521 y[42] + 548 y[43] + 453 y[44] + 977 y[45] + 416 y[46]
   + 685 y[47] + 486 y[48] + 238 y[49] + 689 y[50] + 172 y[51] + 91 y[52]
   + 445 y[53] + 529 y[54] + 101 y[55] + 991 y[56] + 559 y[57] + 128 y[58]
   + 958 y[59] + 787 y[60] + 922 y[61] + 301 y[62] + 989 y[63] + 789 y[64]
   + 737 y[65] + 702 y[66] + 476 y[67] + 661 y[68] + 761 y[69] + 50 y[70]
   + 578 y[71] + 45 y[72] + 374 y[73] + 454 y[74] + 292 y[75] + 277 y[76]
   + 596 y[77] + 576 y[78] + 401 y[79] + 856 y[80] + 545 y[81] + 811 y[82]
   + 587 y[83] + 567 y[84] + 303 y[85] + 591 y[86] + 896 y[87] + 472 y[88]
   + 120 y[89] + 876 y[90] + 192 y[91] + 835 y[92] + 722 y[93] + 51 y[94]
   + 770 y[95] + 536 y[96] + 178 y[97] + 577 y[98] + 639 y[99] + 25 z[0]
   + 91 z[1] + 4 z[2] + 97 z[3] + 82 z[4] + 2 z[5] + 39 z[6] + 87 z[7]
   + 21 z[8] + 6 z[9] + 91 z[10] + 77 z[11] + 18 z[12] + 46 z[13]
   + 52 z[14] + 55 z[15] + 81 z[16] + 82 z[17] + 76 z[18] + 11 z[19]
   + 6 z[20] + 29 z[21] + 84 z[22] + 10 z[23] + 44 z[24] + 3 z[25]
   + 60 z[26] + 87 z[27] + 38 z[28] + 96 z[29] + 72 z[30] + 62 z[31]
   + 56 z[32] + 44 z[33] + 49 z[34] + 54 z[35] + 21 z[36] + 96 z[37]
   + 90 z[38] + 36 z[39] + 69 z[40] + 48 z[41] + 52 z[42] + 55 z[43]
   + 45 z[44] + 98 z[45] + 42 z[46] + 68 z[47] + 49 z[48] + 24 z[49]
   + 69 z[50] + 17 z[51] + 9 z[52] + 44 z[53] + 53 z[54] + 10 z[55]
   + 99 z[56] + 56 z[57] + 13 z[58] + 96 z[59] + 79 z[60] + 92 z[61]
   + 30 z[62] + 99 z[63] + 79 z[64] + 74 z[65] + 70 z[66] + 48 z[67]
   + 66 z[68] + 76 z[69] + 5 z[70] + 58 z[71] + 4 z[72] + 37 z[73]
   + 45 z[74] + 29 z[75] + 28 z[76] + 60 z[77] + 58 z[78] + 40 z[79]
   + 86 z[80] + 54 z[81] + 81 z[82] + 59 z[83] + 57 z[84] + 30 z[85]
   + 59 z[86] + 90 z[87] + 47 z[88] + 12 z[89] + 88 z[90] + 19 z[91]
   + 84 z[92] + 72 z[93] + 5 z[94] + 77 z[95] + 54 z[96] + 18 z[97]
   + 58 z[98] + 64 z[99] <= 17614
 primal_lower0: 517 u[0] + 47 u[1] + 585 u[2] + 232 u[3] + 703 u[4]
   + 329 u[5] + 488 u[6] + 813 u[7] + 377 u[8] + 11 u[9] + 775 u[10]
   + 146 u[11] + 58 u[12] + 923 u[13] + 681 u[14] + 61 u[15] + 866 u[16]
   + 584 u[17] + 23 u[18] + 180 u[19] + 25 u[20] + 896 u[21] + 984 u[22]
   + 540 u[23] + 601 u[24] + 540 u[25] + 313 u[26] + 123 u[27] + 626 u[28]
   + 312 u[29] + 346 u[30] + 565 u[31] + 178 u[32] + 919 u[33] + 861 u[34]
   + 603 u[35] + 222 u[36] + 268 u[37] + 211 u[38] + 635 u[39] + 954 u[40]
   + 779 u[41] + 565 u[42] + 984 u[43] + 113 u[44] + 957 u[45] + 716 u[46]
   + 633 u[47] + 786 u[48] + 994 u[49] + 589 u[50] + 480 u[51] + 311 u[52]
   + 889 u[53] + 453 u[54] + 729 u[55] + 755 u[56] + 843 u[57] + 372 u[58]
   + 578 u[59] + 647 u[60] + 62 u[61] + 969 u[62] + 225 u[63] + 97 u[64]
   + 173 u[65] + 338 u[66] + 840 u[67] + 209 u[68] + 821 u[69] + 182 u[70]
   + 582 u[71] + 641 u[72] + 378 u[73] + 914 u[74] + 72 u[75] + 929 u[76]
   + 944 u[77] + 20 u[78] + 477 u[79] + 828 u[80] + 733 u[81] + 463 u[82]
   + 991 u[83] + 11 u[84] + 323 u[85] + 563 u[86] + 764 u[87] + 12 u[88]
   + 492 u[89] + 48 u[90] + 884 u[91] + 727 u[92] + 342 u[93] + 815 u[94]
   + 382 u[95] + 292 u[96] + 374 u[97] + 141 u[98] + 555 u[99] <= 994
 primal_lower1: 467 u[0] + 820 u[1] + 828 u[2] + 112 u[3] + 574 u[4]
   + 206 u[5] + 875 u[6] + 758 u[7] + 832 u[8] + 295 u[9] + 929 u[10]
   + 227 u[11] + 529 u[12] + 511 u[13] + 275 u[14] + 981 u[15] + 657 u[16]
   + 836 u[17] + 954 u[18] + 884 u[19] + 591 u[20] + 173 u[21] + 507 u[22]
   + 453 u[23] + 8 u[24] + 985 u[25] + 148 u[26] + 316 u[27] + 744 u[28]
   + 677 u[29] + 716 u[30] + 718 u[31] + 113 u[32] + 620 u[33] + 144 u[34]
   + 684 u[35] + 245 u[36] + 936 u[37] + 742 u[38] + 43 u[39] + 89 u[40]
   + 567 u[41] + 983 u[42] + 89 u[43] + 368 u[44] + 314 u[45] + 734 u[46]
   + 426 u[47] + 728 u[48] + 431 u[49] + 296 u[50] + 104 u[51] + 694 u[52]
   + 902 u[53] + 719 u[54] + 873 u[55] + 817 u[56] + 736 u[57] + 135 u[58]
   + 506 u[59] + 565 u[60] + 115 u[61] + 115 u[62] + 114 u[63] + 415 u[64]
   + 346 u[65] + 717 u[66] + 9 u[67] + 584 u[68] + 721 u[69] + 945 u[70]
   + 551 u[71] + 736 u[72] + 647 u[73] + 580 u[74] + 761 u[75] + 976 u[76]
   + 620 u[77] + 918 u[78] + 565 u[79] + 459 u[80] + 570 u[81] + 449 u[82]
   + 887 u[83] + 346 u[84] + 295 u[85] + 341 u[86] + 869 u[87] + 539 u[88]
   + 72 u[89] + 290 u[90] + 181 u[91] + 237 u[92] + 66 u[93] + 425 u[94]
   + 974 u[95] + 867 u[96] + 178 u[97] + 744 u[98] + 923 u[99] <= 17778
 primal_lower2: 509 u[0] + 47 u[1] + 25 u[2] + 336 u[3] + 511 u[4]
   + 809 u[5] + 264 u[6] + 925 u[7] + 633 u[8] + 331 u[9] + 231 u[10]
   + 994 u[11] + 746 u[12] + 627 u[13] + 785 u[14] + 653 u[15] + 18 u[16]
   + 752 u[17] + 415 u[18] + 124 u[19] + 529 u[20] + 944 u[21] + 152 u[22]
   + 100 u[23] + 817 u[24] + 212 u[25] + 81 u[26] + 179 u[27] + 426 u[28]
   + 240 u[29] + 458 u[30] + 141 u[31] + 106 u[32] + 975 u[33] + 293 u[34]
   + 115 u[35] + 70 u[36] + 780 u[37] + 651 u[38] + 443 u[39] + 34 u[40]
   + 411 u[41] + 549 u[42] + 384 u[43] + 393 u[44] + 573 u[45] + 924 u[46]
   + 777 u[47] + 170 u[48] + 530 u[49] + 45 u[50] + 544 u[51] + 487 u[52]
   + 481 u[53] + 381 u[54] + 313 u[55] + 499 u[56] + 235 u[57] + 100 u[58]
   + 546 u[59] + 511 u[60] + 222 u[61] + 193 u[62] + 985 u[63] + 553 u[64]
   + 613 u[65] + 466 u[66] + 176 u[67] + 145 u[68] + 173 u[69] + 334 u[70]
   + 638 u[71] + 689 u[72] + 362 u[73] + 906 u[74] + 72 u[75] + 233 u[76]
   + 776 u[77] + 844 u[78] + 453 u[79] + 276 u[80] + 293 u[81] + 399 u[82]
   + 967 u[83] + 371 u[84] + 387 u[85] + 955 u[86] + 148 u[87] + 524 u[88]
   + 828 u[89] + 80 u[90] + 228 u[91] + 535 u[92] + 190 u[93] + 295 u[94]
   + 190 u[95] + 980 u[96] + 846 u[97] + 981 u[98] + 115 u[99] <= 994
 primal_lower3: 539 u[0] + 548 u[1] + 580 u[2] + 584 u[3] + 334 u[4]
   + 86 u[5] + 827 u[6] + 174 u[7] + 400 u[8] + 607 u[9] + 737 u[10]
   + 619 u[11] + 577 u[12] + 999 u[13] + 675 u[14] + 741 u[15] + 313 u[16]
   + 148 u[17] + 778 u[18] + 580 u[19] + 479 u[20] + 509 u[21] + 547 u[22]
   + 805 u[23] + 136 u[24] + 321 u[25] + 436 u[26] + 364 u[27] + 888 u[28]
   + 277 u[29] + 452 u[30] + 30 u[31] + 81 u[32] + 188 u[33] + 656 u[34]
   + 884 u[35] + 685 u[36] + 760 u[37] + 190 u[38] + 491 u[39] + 777 u[40]
   + 343 u[41] + 463 u[42] + 441 u[43] + 992 u[44] + 730 u[45] + 486 u[46]
   + 122 u[47] + 552 u[48] + 935 u[49] + 736 u[50] + 400 u[51] + 598 u[52]
   + 270 u[53] + 127 u[54] + 81 u[55] + 297 u[56] + 936 u[57] + 47 u[58]
   + 2 u[59] + 677 u[60] + 915 u[61] + 603 u[62] + 826 u[63] + 31 u[64]
   + 810 u[65] + 653 u[66] + u[67] + 360 u[68] + 889 u[69] + 729 u[70]
   + 839 u[71] + 624 u[72] + 911 u[73] + 252 u[74] + 193 u[75] + 952 u[76]
   + 964 u[77] + 110 u[78] + 525 u[79] + 859 u[80] + 330 u[81] + 617 u[82]
   + 367 u[83] + 746 u[84] + 743 u[85] + 469 u[86] + 661 u[87] + 347 u[88]
   + 232 u[89] + 754 u[90] + 941 u[91] + 333 u[92] + 762 u[93] + 865 u[94]
   + 854 u[95] + 891 u[96] + 378 u[97] + 136 u[98] + 475 u[99] <= 17661
 primal_lower4: 818 u[0] + 136 u[1] + 478 u[2] + 857 u[3] + 36 u[4]
   + 674 u[5] + 285 u[6] + 110 u[7] + 566 u[8] + 580 u[9] + 516 u[10]
   + 587 u[11] + 535 u[12] + 660 u[13] + 294 u[14] + 158 u[15] + 535 u[16]
   + 497 u[17] + 380 u[18] + 245 u[19] + 774 u[20] + 513 u[21] + 221 u[22]
   + 429 u[23] + 334 u[24] + 965 u[25] + 366 u[26] + 972 u[27] + 271 u[28]
   + 985 u[29] + 31 u[30] + 30 u[31] + 991 u[32] + 240 u[33] + 722 u[34]
   + 68 u[35] + 491 u[36] + 797 u[37] + 1000 u[38] + 908 u[39] + 711 u[40]
   + 540 u[41] + 354 u[42] + 17 u[43] + 630 u[44] + 470 u[45] + 529 u[46]
   + 570 u[47] + 183 u[48] + 147 u[49] + 442 u[50] + 417 u[51] + 460 u[52]
   + 770 u[53] + 890 u[54] + 698 u[55] + 488 u[56] + 52 u[57] + 41 u[58]
   + 979 u[59] + 500 u[60] + 575 u[61] + 814 u[62] + 170 u[63] + 886 u[64]
   + 334 u[65] + 839 u[66] + 705 u[67] + 942 u[68] + 838 u[69] + 611 u[70]
   + 199 u[71] + 822 u[72] + 707 u[73] + 415 u[74] + 145 u[75] + 326 u[76]
   + 625 u[77] + 793 u[78] + 686 u[79] + 481 u[80] + 102 u[81] + 100 u[82]
   + 32 u[83] + 464 u[84] + 660 u[85] + 440 u[86] + 637 u[87] + 881 u[88]
   + 165 u[89] + 453 u[90] + 29 u[91] + 964 u[92] + 759 u[93] + 572 u[94]
   + 439 u[95] + 57 u[96] + 647 u[97] + 786 u[98] + 612 u[99] <= 16885
 primal_lower5: 784 u[0] + 630 u[1] + 876 u[2] + 999 u[3] + 402 u[4]
   + 480 u[5] + 411 u[6] + 588 u[7] + 836 u[8] + 930 u[9] + 882 u[10]
   + 625 u[11] + 885 u[12] + 362 u[13] + 548 u[14] + 716 u[15] + 709 u[16]
   + 479 u[17] + 266 u[18] + 907 u[19] + 988 u[20] + 647 u[21] + 995 u[22]
   + 459 u[23] + 684 u[24] + 563 u[25] + 220 u[26] + 98 u[27] + 429 u[28]
   + 239 u[29] + 589 u[30] + 988 u[31] + 701 u[32] + 862 u[33] + 856 u[34]
   + 866 u[35] + 729 u[36] + 883 u[37] + 198 u[38] + 130 u[39] + 869 u[40]
   + 882 u[41] + 624 u[42] + 383 u[43] + 828 u[44] + 84 u[45] + 807 u[46]
   + 496 u[47] + 501 u[48] + 961 u[49] + 584 u[50] + 999 u[51] + 626 u[52]
   + 152 u[53] + 376 u[54] + 304 u[55] + 670 u[56] + 642 u[57] + 983 u[58]
   + 449 u[59] + 890 u[60] + 405 u[61] + 92 u[62] + 480 u[63] + 692 u[64]
   + 196 u[65] + 701 u[66] + 631 u[67] + 212 u[68] + 236 u[69] + 993 u[70]
   + 285 u[71] + 324 u[72] + 777 u[73] + 605 u[74] + 327 u[75] + 188 u[76]
   + 55 u[77] + 751 u[78] + 580 u[79] + 407 u[80] + 652 u[81] + 74 u[82]
   + 406 u[83] + 542 u[84] + 210 u[85] + 174 u[86] + 347 u[87] + 815 u[88]
   + 355 u[89] + 531 u[90] + 627 u[91] + 610 u[92] + 165 u[93] + 714 u[94]
   + 517 u[95] + 303 u[96] + 285 u[97] + 528 u[98] + 754 u[99] <= 18698
 primal_lower6: 218 u[0] + 640 u[1] + 798 u[2] + 705 u[3] + 908 u[4]
   + 122 u[5] + 133 u[6] + 742 u[7] + 134 u[8] + 132 u[9] + 780 u[10]
   + 467 u[11] + 727 u[12] + 348 u[13] + 246 u[14] + 366 u[15] + 735 u[16]
   + 9 u[17] + 932 u[18] + 773 u[19] + 174 u[20] + 201 u[21] + 453 u[22]
   + 197 u[23] + 350 u[24] + 597 u[25] + 238 u[26] + 76 u[27] + 727 u[28]
   + 273 u[29] + 215 u[30] + 190 u[31] + 735 u[32] + 480 u[33] + 410 u[34]
   + 84 u[35] + 115 u[36] + 957 u[37] + 632 u[38] + 84 u[39] + 95 u[40]
   + 932 u[41] + 946 u[42] + 945 u[43] + 46 u[44] + 206 u[45] + 481 u[46]
   + 298 u[47] + 559 u[48] + 403 u[49] + 170 u[50] + 177 u[51] + 644 u[52]
   + 570 u[53] + 522 u[54] + 914 u[55] + 736 u[56] + 604 u[57] + 417 u[58]
   + 499 u[59] + 444 u[60] + 303 u[61] + 222 u[62] + 58 u[63] + 462 u[64]
   + 118 u[65] + 895 u[66] + 905 u[67] + 638 u[68] + 790 u[69] + 307 u[70]
   + 591 u[71] + 958 u[72] + 819 u[73] + 695 u[74] + 257 u[75] + 246 u[76]
   + 297 u[77] + 849 u[78] + 910 u[79] + 217 u[80] + 262 u[81] + 300 u[82]
   + 352 u[83] + 728 u[84] + 636 u[85] + 920 u[86] + 797 u[87] + 209 u[88]
   + 621 u[89] + 165 u[90] + 389 u[91] + 564 u[92] + 839 u[93] + 524 u[94]
   + 631 u[95] + 537 u[96] + 407 u[97] + 866 u[98] + 12 u[99] <= 958
 primal_lower7: 994 u[0] + 671 u[1] + 163 u[2] + 123 u[3] + 469 u[4]
   + 809 u[5] + 858 u[6] + 537 u[7] + 535 u[8] + 418 u[9] + 320 u[10]
   + 142 u[11] + 984 u[12] + 826 u[13] + 546 u[14] + 784 u[15] + 456 u[16]
   + 399 u[17] + 289 u[18] + 247 u[19] + 990 u[20] + 896 u[21] + 922 u[22]
   + 112 u[23] + 823 u[24] + 804 u[25] + 379 u[26] + 383 u[27] + 823 u[28]
   + 376 u[29] + 579 u[30] + 641 u[31] + 952 u[32] + 895 u[33] + 383 u[34]
   + 887 u[35] + 212 u[36] + 851 u[37] + 405 u[38] + 214 u[39] + 608 u[40]
   + 58 u[41] + 798 u[42] + 260 u[43] + 327 u[44] + 709 u[45] + 461 u[46]
   + 949 u[47] + 519 u[48] + 690 u[49] + 695 u[50] + 275 u[51] + 629 u[52]
   + 113 u[53] + 198 u[54] + 284 u[55] + 432 u[56] + 139 u[57] + 142 u[58]
   + 877 u[59] + 884 u[60] + 990 u[61] + 90 u[62] + 525 u[63] + 638 u[64]
   + 125 u[65] + 884 u[66] + 660 u[67] + 351 u[68] + 956 u[69] + 264 u[70]
   + 346 u[71] + 71 u[72] + 434 u[73] + 891 u[74] + 668 u[75] + 711 u[76]
   + 951 u[77] + 205 u[78] + 664 u[79] + 850 u[80] + 845 u[81] + 896 u[82]
   + 434 u[83] + 313 u[84] + 946 u[85] + 4 u[86] + 232 u[87] + 682 u[88]
   + 827 u[89] + 577 u[90] + 432 u[91] + 748 u[92] + 525 u[93] + 216 u[94]
   + 353 u[95] + 402 u[96] + 261 u[97] + 943 u[98] + 790 u[99] <= 994
 primal_lower8: 251 u[0] + 589 u[1] + 335 u[2] + 70 u[3] + 549 u[4]
   + 543 u[5] + 638 u[6] + 291 u[7] + 159 u[8] + 745 u[9] + 653 u[10]
   + 536 u[11] + 328 u[12] + 617 u[13] + 895 u[14] + 955 u[15] + 344 u[16]
   + 350 u[17] + 213 u[18] + 578 u[19] + 151 u[20] + 214 u[21] + 734 u[22]
   + 650 u[23] + 119 u[24] + 514 u[25] + 383 u[26] + 481 u[27] + 128 u[28]
   + 782 u[29] + 464 u[30] + 899 u[31] + 928 u[32] + 517 u[33] + 91 u[34]
   + 289 u[35] + 180 u[36] + 986 u[37] + 921 u[38] + 81 u[39] + 400 u[40]
   + 201 u[41] + 691 u[42] + 734 u[43] + 903 u[44] + 931 u[45] + 994 u[46]
   + 95 u[47] + 656 u[48] + 800 u[49] + 931 u[50] + 998 u[51] + 381 u[52]
   + 199 u[53] + 35 u[54] + 63 u[55] + 513 u[56] + 529 u[57] + 842 u[58]
   + 472 u[59] + 245 u[60] + 676 u[61] + 207 u[62] + 767 u[63] + 327 u[64]
   + 651 u[65] + 568 u[66] + 406 u[67] + 823 u[68] + 747 u[69] + 796 u[70]
   + 396 u[71] + 543 u[72] + 144 u[73] + 928 u[74] + 358 u[75] + 799 u[76]
   + 630 u[77] + 178 u[78] + 43 u[79] + 706 u[80] + 443 u[81] + 93 u[82]
   + 181 u[83] + 737 u[84] + 953 u[85] + 17 u[86] + 802 u[87] + 346 u[88]
   + 730 u[89] + 398 u[90] + 650 u[91] + 909 u[92] + 636 u[93] + 709 u[94]
   + 76 u[95] + 546 u[96] + 292 u[97] + 947 u[98] + 153 u[99] <= 17025
 primal_lower9: 326 u[0] + 948 u[1] + 906 u[2] + 53 u[3] + 592 u[4]
   + 918 u[5] + 473 u[6] + 722 u[7] + 874 u[8] + 976 u[9] + 776 u[10]
   + 599 u[11] + 123 u[12] + 584 u[13] + 946 u[14] + 914 u[15] + 779 u[16]
   + 797 u[17] + 96 u[18] + 777 u[19] + 138 u[20] + 685 u[21] + 769 u[22]
   + 57 u[23] + 618 u[24] + 689 u[25] + 890 u[26] + 752 u[27] + 363 u[28]
   + 165 u[29] + 843 u[30] + 610 u[31] + 539 u[32] + 28 u[33] + 934 u[34]
   + 288 u[35] + 671 u[36] + 201 u[37] + 228 u[38] + 616 u[39] + 923 u[40]
   + 416 u[41] + 198 u[42] + 885 u[43] + 722 u[44] + 482 u[45] + 917 u[46]
   + 158 u[47] + 587 u[48] + 143 u[49] + 550 u[50] + 693 u[51] + 744 u[52]
   + 766 u[53] + 134 u[54] + 662 u[55] + 588 u[56] + 952 u[57] + 981 u[58]
   + 127 u[59] + 920 u[60] + 371 u[61] + 466 u[62] + 814 u[63] + 250 u[64]
   + 834 u[65] + 539 u[66] + 837 u[67] + 834 u[68] + 634 u[69] + 927 u[70]
   + 867 u[71] + 426 u[72] + 495 u[73] + 803 u[74] + 677 u[75] + 2 u[76]
   + 909 u[77] + 525 u[78] + 410 u[79] + 213 u[80] + 26 u[81] + 256 u[82]
   + 972 u[83] + 4 u[84] + 928 u[85] + 844 u[86] + 593 u[87] + 477 u[88]
   + 817 u[89] + 825 u[90] + 377 u[91] + 312 u[92] + 579 u[93] + 8 u[94]
   + 963 u[95] + 933 u[96] + 51 u[97] + 942 u[98] + 248 u[99] <= 19266
 interdiction[0]: x[0] + u[0] <= 1
 interdiction[1]: x[1] + u[1] <= 1
 interdiction[2]: x[2] + u[2] <= 1
 interdiction[3]: x[3] + u[3] <= 1
 interdiction[4]: x[4] + u[4] <= 1
 interdiction[5]: x[5] + u[5] <= 1
 interdiction[6]: x[6] + u[6] <= 1
 interdiction[7]: x[7] + u[7] <= 1
 interdiction[8]: x[8] + u[8] <= 1
 interdiction[9]: x[9] + u[9] <= 1
 interdiction[10]: x[10] + u[10] <= 1
 interdiction[11]: x[11] + u[11] <= 1
 interdiction[12]: x[12] + u[12] <= 1
 interdiction[13]: x[13] + u[13] <= 1
 interdiction[14]: x[14] + u[14] <= 1
 interdiction[15]: x[15] + u[15] <= 1
 interdiction[16]: x[16] + u[16] <= 1
 interdiction[17]: x[17] + u[17] <= 1
 interdiction[18]: x[18] + u[18] <= 1
 interdiction[19]: x[19] + u[19] <= 1
 interdiction[20]: x[20] + u[20] <= 1
 interdiction[21]: x[21] + u[21] <= 1
 interdiction[22]: x[22] + u[22] <= 1
 interdiction[23]: x[23] + u[23] <= 1
 interdiction[24]: x[24] + u[24] <= 1
 interdiction[25]: x[25] + u[25] <= 1
 interdiction[26]: x[26] + u[26] <= 1
 interdiction[27]: x[27] + u[27] <= 1
 interdiction[28]: x[28] + u[28] <= 1
 interdiction[29]: x[29] + u[29] <= 1
 interdiction[30]: x[30] + u[30] <= 1
 interdiction[31]: x[31] + u[31] <= 1
 interdiction[32]: x[32] + u[32] <= 1
 interdiction[33]: x[33] + u[33] <= 1
 interdiction[34]: x[34] + u[34] <= 1
 interdiction[35]: x[35] + u[35] <= 1
 interdiction[36]: x[36] + u[36] <= 1
 interdiction[37]: x[37] + u[37] <= 1
 interdiction[38]: x[38] + u[38] <= 1
 interdiction[39]: x[39] + u[39] <= 1
 interdiction[40]: x[40] + u[40] <= 1
 interdiction[41]: x[41] + u[41] <= 1
 interdiction[42]: x[42] + u[42] <= 1
 interdiction[43]: x[43] + u[43] <= 1
 interdiction[44]: x[44] + u[44] <= 1
 interdiction[45]: x[45] + u[45] <= 1
 interdiction[46]: x[46] + u[46] <= 1
 interdiction[47]: x[47] + u[47] <= 1
 interdiction[48]: x[48] + u[48] <= 1
 interdiction[49]: x[49] + u[49] <= 1
 interdiction[50]: x[50] + u[50] <= 1
 interdiction[51]: x[51] + u[51] <= 1
 interdiction[52]: x[52] + u[52] <= 1
 interdiction[53]: x[53] + u[53] <= 1
 interdiction[54]: x[54] + u[54] <= 1
 interdiction[55]: x[55] + u[55] <= 1
 interdiction[56]: x[56] + u[56] <= 1
 interdiction[57]: x[57] + u[57] <= 1
 interdiction[58]: x[58] + u[58] <= 1
 interdiction[59]: x[59] + u[59] <= 1
 interdiction[60]: x[60] + u[60] <= 1
 interdiction[61]: x[61] + u[61] <= 1
 interdiction[62]: x[62] + u[62] <= 1
 interdiction[63]: x[63] + u[63] <= 1
 interdiction[64]: x[64] + u[64] <= 1
 interdiction[65]: x[65] + u[65] <= 1
 interdiction[66]: x[66] + u[66] <= 1
 interdiction[67]: x[67] + u[67] <= 1
 interdiction[68]: x[68] + u[68] <= 1
 interdiction[69]: x[69] + u[69] <= 1
 interdiction[70]: x[70] + u[70] <= 1
 interdiction[71]: x[71] + u[71] <= 1
 interdiction[72]: x[72] + u[72] <= 1
 interdiction[73]: x[73] + u[73] <= 1
 interdiction[74]: x[74] + u[74] <= 1
 interdiction[75]: x[75] + u[75] <= 1
 interdiction[76]: x[76] + u[76] <= 1
 interdiction[77]: x[77] + u[77] <= 1
 interdiction[78]: x[78] + u[78] <= 1
 interdiction[79]: x[79] + u[79] <= 1
 interdiction[80]: x[80] + u[80] <= 1
 interdiction[81]: x[81] + u[81] <= 1
 interdiction[82]: x[82] + u[82] <= 1
 interdiction[83]: x[83] + u[83] <= 1
 interdiction[84]: x[84] + u[84] <= 1
 interdiction[85]: x[85] + u[85] <= 1
 interdiction[86]: x[86] + u[86] <= 1
 interdiction[87]: x[87] + u[87] <= 1
 interdiction[88]: x[88] + u[88] <= 1
 interdiction[89]: x[89] + u[89] <= 1
 interdiction[90]: x[90] + u[90] <= 1
 interdiction[91]: x[91] + u[91] <= 1
 interdiction[92]: x[92] + u[92] <= 1
 interdiction[93]: x[93] + u[93] <= 1
 interdiction[94]: x[94] + u[94] <= 1
 interdiction[95]: x[95] + u[95] <= 1
 interdiction[96]: x[96] + u[96] <= 1
 interdiction[97]: x[97] + u[97] <= 1
 interdiction[98]: x[98] + u[98] <= 1
 interdiction[99]: x[99] + u[99] <= 1
 mccormick1[0]: - u[0] + z[0] <= 0
 mccormick1[1]: - u[1] + z[1] <= 0
 mccormick1[2]: - u[2] + z[2] <= 0
 mccormick1[3]: - u[3] + z[3] <= 0
 mccormick1[4]: - u[4] + z[4] <= 0
 mccormick1[5]: - u[5] + z[5] <= 0
 mccormick1[6]: - u[6] + z[6] <= 0
 mccormick1[7]: - u[7] + z[7] <= 0
 mccormick1[8]: - u[8] + z[8] <= 0
 mccormick1[9]: - u[9] + z[9] <= 0
 mccormick1[10]: - u[10] + z[10] <= 0
 mccormick1[11]: - u[11] + z[11] <= 0
 mccormick1[12]: - u[12] + z[12] <= 0
 mccormick1[13]: - u[13] + z[13] <= 0
 mccormick1[14]: - u[14] + z[14] <= 0
 mccormick1[15]: - u[15] + z[15] <= 0
 mccormick1[16]: - u[16] + z[16] <= 0
 mccormick1[17]: - u[17] + z[17] <= 0
 mccormick1[18]: - u[18] + z[18] <= 0
 mccormick1[19]: - u[19] + z[19] <= 0
 mccormick1[20]: - u[20] + z[20] <= 0
 mccormick1[21]: - u[21] + z[21] <= 0
 mccormick1[22]: - u[22] + z[22] <= 0
 mccormick1[23]: - u[23] + z[23] <= 0
 mccormick1[24]: - u[24] + z[24] <= 0
 mccormick1[25]: - u[25] + z[25] <= 0
 mccormick1[26]: - u[26] + z[26] <= 0
 mccormick1[27]: - u[27] + z[27] <= 0
 mccormick1[28]: - u[28] + z[28] <= 0
 mccormick1[29]: - u[29] + z[29] <= 0
 mccormick1[30]: - u[30] + z[30] <= 0
 mccormick1[31]: - u[31] + z[31] <= 0
 mccormick1[32]: - u[32] + z[32] <= 0
 mccormick1[33]: - u[33] + z[33] <= 0
 mccormick1[34]: - u[34] + z[34] <= 0
 mccormick1[35]: - u[35] + z[35] <= 0
 mccormick1[36]: - u[36] + z[36] <= 0
 mccormick1[37]: - u[37] + z[37] <= 0
 mccormick1[38]: - u[38] + z[38] <= 0
 mccormick1[39]: - u[39] + z[39] <= 0
 mccormick1[40]: - u[40] + z[40] <= 0
 mccormick1[41]: - u[41] + z[41] <= 0
 mccormick1[42]: - u[42] + z[42] <= 0
 mccormick1[43]: - u[43] + z[43] <= 0
 mccormick1[44]: - u[44] + z[44] <= 0
 mccormick1[45]: - u[45] + z[45] <= 0
 mccormick1[46]: - u[46] + z[46] <= 0
 mccormick1[47]: - u[47] + z[47] <= 0
 mccormick1[48]: - u[48] + z[48] <= 0
 mccormick1[49]: - u[49] + z[49] <= 0
 mccormick1[50]: - u[50] + z[50] <= 0
 mccormick1[51]: - u[51] + z[51] <= 0
 mccormick1[52]: - u[52] + z[52] <= 0
 mccormick1[53]: - u[53] + z[53] <= 0
 mccormick1[54]: - u[54] + z[54] <= 0
 mccormick1[55]: - u[55] + z[55] <= 0
 mccormick1[56]: - u[56] + z[56] <= 0
 mccormick1[57]: - u[57] + z[57] <= 0
 mccormick1[58]: - u[58] + z[58] <= 0
 mccormick1[59]: - u[59] + z[59] <= 0
 mccormick1[60]: - u[60] + z[60] <= 0
 mccormick1[61]: - u[61] + z[61] <= 0
 mccormick1[62]: - u[62] + z[62] <= 0
 mccormick1[63]: - u[63] + z[63] <= 0
 mccormick1[64]: - u[64] + z[64] <= 0
 mccormick1[65]: - u[65] + z[65] <= 0
 mccormick1[66]: - u[66] + z[66] <= 0
 mccormick1[67]: - u[67] + z[67] <= 0
 mccormick1[68]: - u[68] + z[68] <= 0
 mccormick1[69]: - u[69] + z[69] <= 0
 mccormick1[70]: - u[70] + z[70] <= 0
 mccormick1[71]: - u[71] + z[71] <= 0
 mccormick1[72]: - u[72] + z[72] <= 0
 mccormick1[73]: - u[73] + z[73] <= 0
 mccormick1[74]: - u[74] + z[74] <= 0
 mccormick1[75]: - u[75] + z[75] <= 0
 mccormick1[76]: - u[76] + z[76] <= 0
 mccormick1[77]: - u[77] + z[77] <= 0
 mccormick1[78]: - u[78] + z[78] <= 0
 mccormick1[79]: - u[79] + z[79] <= 0
 mccormick1[80]: - u[80] + z[80] <= 0
 mccormick1[81]: - u[81] + z[81] <= 0
 mccormick1[82]: - u[82] + z[82] <= 0
 mccormick1[83]: - u[83] + z[83] <= 0
 mccormick1[84]: - u[84] + z[84] <= 0
 mccormick1[85]: - u[85] + z[85] <= 0
 mccormick1[86]: - u[86] + z[86] <= 0
 mccormick1[87]: - u[87] + z[87] <= 0
 mccormick1[88]: - u[88] + z[88] <= 0
 mccormick1[89]: - u[89] + z[89] <= 0
 mccormick1[90]: - u[90] + z[90] <= 0
 mccormick1[91]: - u[91] + z[91] <= 0
 mccormick1[92]: - u[92] + z[92] <= 0
 mccormick1[93]: - u[93] + z[93] <= 0
 mccormick1[94]: - u[94] + z[94] <= 0
 mccormick1[95]: - u[95] + z[95] <= 0
 mccormick1[96]: - u[96] + z[96] <= 0
 mccormick1[97]: - u[97] + z[97] <= 0
 mccormick1[98]: - u[98] + z[98] <= 0
 mccormick1[99]: - u[99] + z[99] <= 0
 mccormick2[0]: - y[0] + z[0] <= 0
 mccormick2[1]: - y[1] + z[1] <= 0
 mccormick2[2]: - y[2] + z[2] <= 0
 mccormick2[3]: - y[3] + z[3] <= 0
 mccormick2[4]: - y[4] + z[4] <= 0
 mccormick2[5]: - y[5] + z[5] <= 0
 mccormick2[6]: - y[6] + z[6] <= 0
 mccormick2[7]: - y[7] + z[7] <= 0
 mccormick2[8]: - y[8] + z[8] <= 0
 mccormick2[9]: - y[9] + z[9] <= 0
 mccormick2[10]: - y[10] + z[10] <= 0
 mccormick2[11]: - y[11] + z[11] <= 0
 mccormick2[12]: - y[12] + z[12] <= 0
 mccormick2[13]: - y[13] + z[13] <= 0
 mccormick2[14]: - y[14] + z[14] <= 0
 mccormick2[15]: - y[15] + z[15] <= 0
 mccormick2[16]: - y[16] + z[16] <= 0
 mccormick2[17]: - y[17] + z[17] <= 0
 mccormick2[18]: - y[18] + z[18] <= 0
 mccormick2[19]: - y[19] + z[19] <= 0
 mccormick2[20]: - y[20] + z[20] <= 0
 mccormick2[21]: - y[21] + z[21] <= 0
 mccormick2[22]: - y[22] + z[22] <= 0
 mccormick2[23]: - y[23] + z[23] <= 0
 mccormick2[24]: - y[24] + z[24] <= 0
 mccormick2[25]: - y[25] + z[25] <= 0
 mccormick2[26]: - y[26] + z[26] <= 0
 mccormick2[27]: - y[27] + z[27] <= 0
 mccormick2[28]: - y[28] + z[28] <= 0
 mccormick2[29]: - y[29] + z[29] <= 0
 mccormick2[30]: - y[30] + z[30] <= 0
 mccormick2[31]: - y[31] + z[31] <= 0
 mccormick2[32]: - y[32] + z[32] <= 0
 mccormick2[33]: - y[33] + z[33] <= 0
 mccormick2[34]: - y[34] + z[34] <= 0
 mccormick2[35]: - y[35] + z[35] <= 0
 mccormick2[36]: - y[36] + z[36] <= 0
 mccormick2[37]: - y[37] + z[37] <= 0
 mccormick2[38]: - y[38] + z[38] <= 0
 mccormick2[39]: - y[39] + z[39] <= 0
 mccormick2[40]: - y[40] + z[40] <= 0
 mccormick2[41]: - y[41] + z[41] <= 0
 mccormick2[42]: - y[42] + z[42] <= 0
 mccormick2[43]: - y[43] + z[43] <= 0
 mccormick2[44]: - y[44] + z[44] <= 0
 mccormick2[45]: - y[45] + z[45] <= 0
 mccormick2[46]: - y[46] + z[46] <= 0
 mccormick2[47]: - y[47] + z[47] <= 0
 mccormick2[48]: - y[48] + z[48] <= 0
 mccormick2[49]: - y[49] + z[49] <= 0
 mccormick2[50]: - y[50] + z[50] <= 0
 mccormick2[51]: - y[51] + z[51] <= 0
 mccormick2[52]: - y[52] + z[52] <= 0
 mccormick2[53]: - y[53] + z[53] <= 0
 mccormick2[54]: - y[54] + z[54] <= 0
 mccormick2[55]: - y[55] + z[55] <= 0
 mccormick2[56]: - y[56] + z[56] <= 0
 mccormick2[57]: - y[57] + z[57] <= 0
 mccormick2[58]: - y[58] + z[58] <= 0
 mccormick2[59]: - y[59] + z[59] <= 0
 mccormick2[60]: - y[60] + z[60] <= 0
 mccormick2[61]: - y[61] + z[61] <= 0
 mccormick2[62]: - y[62] + z[62] <= 0
 mccormick2[63]: - y[63] + z[63] <= 0
 mccormick2[64]: - y[64] + z[64] <= 0
 mccormick2[65]: - y[65] + z[65] <= 0
 mccormick2[66]: - y[66] + z[66] <= 0
 mccormick2[67]: - y[67] + z[67] <= 0
 mccormick2[68]: - y[68] + z[68] <= 0
 mccormick2[69]: - y[69] + z[69] <= 0
 mccormick2[70]: - y[70] + z[70] <= 0
 mccormick2[71]: - y[71] + z[71] <= 0
 mccormick2[72]: - y[72] + z[72] <= 0
 mccormick2[73]: - y[73] + z[73] <= 0
 mccormick2[74]: - y[74] + z[74] <= 0
 mccormick2[75]: - y[75] + z[75] <= 0
 mccormick2[76]: - y[76] + z[76] <= 0
 mccormick2[77]: - y[77] + z[77] <= 0
 mccormick2[78]: - y[78] + z[78] <= 0
 mccormick2[79]: - y[79] + z[79] <= 0
 mccormick2[80]: - y[80] + z[80] <= 0
 mccormick2[81]: - y[81] + z[81] <= 0
 mccormick2[82]: - y[82] + z[82] <= 0
 mccormick2[83]: - y[83] + z[83] <= 0
 mccormick2[84]: - y[84] + z[84] <= 0
 mccormick2[85]: - y[85] + z[85] <= 0
 mccormick2[86]: - y[86] + z[86] <= 0
 mccormick2[87]: - y[87] + z[87] <= 0
 mccormick2[88]: - y[88] + z[88] <= 0
 mccormick2[89]: - y[89] + z[89] <= 0
 mccormick2[90]: - y[90] + z[90] <= 0
 mccormick2[91]: - y[91] + z[91] <= 0
 mccormick2[92]: - y[92] + z[92] <= 0
 mccormick2[93]: - y[93] + z[93] <= 0
 mccormick2[94]: - y[94] + z[94] <= 0
 mccormick2[95]: - y[95] + z[95] <= 0
 mccormick2[96]: - y[96] + z[96] <= 0
 mccormick2[97]: - y[97] + z[97] <= 0
 mccormick2[98]: - y[98] + z[98] <= 0
 mccormick2[99]: - y[99] + z[99] <= 0
 mccormick3[0]: y[0] + u[0] - z[0] <= 1
 mccormick3[1]: y[1] + u[1] - z[1] <= 1
 mccormick3[2]: y[2] + u[2] - z[2] <= 1
 mccormick3[3]: y[3] + u[3] - z[3] <= 1
 mccormick3[4]: y[4] + u[4] - z[4] <= 1
 mccormick3[5]: y[5] + u[5] - z[5] <= 1
 mccormick3[6]: y[6] + u[6] - z[6] <= 1
 mccormick3[7]: y[7] + u[7] - z[7] <= 1
 mccormick3[8]: y[8] + u[8] - z[8] <= 1
 mccormick3[9]: y[9] + u[9] - z[9] <= 1
 mccormick3[10]: y[10] + u[10] - z[10] <= 1
 mccormick3[11]: y[11] + u[11] - z[11] <= 1
 mccormick3[12]: y[12] + u[12] - z[12] <= 1
 mccormick3[13]: y[13] + u[13] - z[13] <= 1
 mccormick3[14]: y[14] + u[14] - z[14] <= 1
 mccormick3[15]: y[15] + u[15] - z[15] <= 1
 mccormick3[16]: y[16] + u[16] - z[16] <= 1
 mccormick3[17]: y[17] + u[17] - z[17] <= 1
 mccormick3[18]: y[18] + u[18] - z[18] <= 1
 mccormick3[19]: y[19] + u[19] - z[19] <= 1
 mccormick3[20]: y[20] + u[20] - z[20] <= 1
 mccormick3[21]: y[21] + u[21] - z[21] <= 1
 mccormick3[22]: y[22] + u[22] - z[22] <= 1
 mccormick3[23]: y[23] + u[23] - z[23] <= 1
 mccormick3[24]: y[24] + u[24] - z[24] <= 1
 mccormick3[25]: y[25] + u[25] - z[25] <= 1
 mccormick3[26]: y[26] + u[26] - z[26] <= 1
 mccormick3[27]: y[27] + u[27] - z[27] <= 1
 mccormick3[28]: y[28] + u[28] - z[28] <= 1
 mccormick3[29]: y[29] + u[29] - z[29] <= 1
 mccormick3[30]: y[30] + u[30] - z[30] <= 1
 mccormick3[31]: y[31] + u[31] - z[31] <= 1
 mccormick3[32]: y[32] + u[32] - z[32] <= 1
 mccormick3[33]: y[33] + u[33] - z[33] <= 1
 mccormick3[34]: y[34] + u[34] - z[34] <= 1
 mccormick3[35]: y[35] + u[35] - z[35] <= 1
 mccormick3[36]: y[36] + u[36] - z[36] <= 1
 mccormick3[37]: y[37] + u[37] - z[37] <= 1
 mccormick3[38]: y[38] + u[38] - z[38] <= 1
 mccormick3[39]: y[39] + u[39] - z[39] <= 1
 mccormick3[40]: y[40] + u[40] - z[40] <= 1
 mccormick3[41]: y[41] + u[41] - z[41] <= 1
 mccormick3[42]: y[42] + u[42] - z[42] <= 1
 mccormick3[43]: y[43] + u[43] - z[43] <= 1
 mccormick3[44]: y[44] + u[44] - z[44] <= 1
 mccormick3[45]: y[45] + u[45] - z[45] <= 1
 mccormick3[46]: y[46] + u[46] - z[46] <= 1
 mccormick3[47]: y[47] + u[47] - z[47] <= 1
 mccormick3[48]: y[48] + u[48] - z[48] <= 1
 mccormick3[49]: y[49] + u[49] - z[49] <= 1
 mccormick3[50]: y[50] + u[50] - z[50] <= 1
 mccormick3[51]: y[51] + u[51] - z[51] <= 1
 mccormick3[52]: y[52] + u[52] - z[52] <= 1
 mccormick3[53]: y[53] + u[53] - z[53] <= 1
 mccormick3[54]: y[54] + u[54] - z[54] <= 1
 mccormick3[55]: y[55] + u[55] - z[55] <= 1
 mccormick3[56]: y[56] + u[56] - z[56] <= 1
 mccormick3[57]: y[57] + u[57] - z[57] <= 1
 mccormick3[58]: y[58] + u[58] - z[58] <= 1
 mccormick3[59]: y[59] + u[59] - z[59] <= 1
 mccormick3[60]: y[60] + u[60] - z[60] <= 1
 mccormick3[61]: y[61] + u[61] - z[61] <= 1
 mccormick3[62]: y[62] + u[62] - z[62] <= 1
 mccormick3[63]: y[63] + u[63] - z[63] <= 1
 mccormick3[64]: y[64] + u[64] - z[64] <= 1
 mccormick3[65]: y[65] + u[65] - z[65] <= 1
 mccormick3[66]: y[66] + u[66] - z[66] <= 1
 mccormick3[67]: y[67] + u[67] - z[67] <= 1
 mccormick3[68]: y[68] + u[68] - z[68] <= 1
 mccormick3[69]: y[69] + u[69] - z[69] <= 1
 mccormick3[70]: y[70] + u[70] - z[70] <= 1
 mccormick3[71]: y[71] + u[71] - z[71] <= 1
 mccormick3[72]: y[72] + u[72] - z[72] <= 1
 mccormick3[73]: y[73] + u[73] - z[73] <= 1
 mccormick3[74]: y[74] + u[74] - z[74] <= 1
 mccormick3[75]: y[75] + u[75] - z[75] <= 1
 mccormick3[76]: y[76] + u[76] - z[76] <= 1
 mccormick3[77]: y[77] + u[77] - z[77] <= 1
 mccormick3[78]: y[78] + u[78] - z[78] <= 1
 mccormick3[79]: y[79] + u[79] - z[79] <= 1
 mccormick3[80]: y[80] + u[80] - z[80] <= 1
 mccormick3[81]: y[81] + u[81] - z[81] <= 1
 mccormick3[82]: y[82] + u[82] - z[82] <= 1
 mccormick3[83]: y[83] + u[83] - z[83] <= 1
 mccormick3[84]: y[84] + u[84] - z[84] <= 1
 mccormick3[85]: y[85] + u[85] - z[85] <= 1
 mccormick3[86]: y[86] + u[86] - z[86] <= 1
 mccormick3[87]: y[87] + u[87] - z[87] <= 1
 mccormick3[88]: y[88] + u[88] - z[88] <= 1
 mccormick3[89]: y[89] + u[89] - z[89] <= 1
 mccormick3[90]: y[90] + u[90] - z[90] <= 1
 mccormick3[91]: y[91] + u[91] - z[91] <= 1
 mccormick3[92]: y[92] + u[92] - z[92] <= 1
 mccormick3[93]: y[93] + u[93] - z[93] <= 1
 mccormick3[94]: y[94] + u[94] - z[94] <= 1
 mccormick3[95]: y[95] + u[95] - z[95] <= 1
 mccormick3[96]: y[96] + u[96] - z[96] <= 1
 mccormick3[97]: y[97] + u[97] - z[97] <= 1
 mccormick3[98]: y[98] + u[98] - z[98] <= 1
 mccormick3[99]: y[99] + u[99] - z[99] <= 1
Bounds
Binaries
 x[0] x[1] x[2] x[3] x[4] x[5] x[6] x[7] x[8] x[9] x[10] x[11] x[12] x[13]
 x[14] x[15] x[16] x[17] x[18] x[19] x[20] x[21] x[22] x[23] x[24] x[25]
 x[26] x[27] x[28] x[29] x[30] x[31] x[32] x[33] x[34] x[35] x[36] x[37]
 x[38] x[39] x[40] x[41] x[42] x[43] x[44] x[45] x[46] x[47] x[48] x[49]
 x[50] x[51] x[52] x[53] x[54] x[55] x[56] x[57] x[58] x[59] x[60] x[61]
 x[62] x[63] x[64] x[65] x[66] x[67] x[68] x[69] x[70] x[71] x[72] x[73]
 x[74] x[75] x[76] x[77] x[78] x[79] x[80] x[81] x[82] x[83] x[84] x[85]
 x[86] x[87] x[88] x[89] x[90] x[91] x[92] x[93] x[94] x[95] x[96] x[97]
 x[98] x[99] y[0] y[1] y[2] y[3] y[4] y[5] y[6] y[7] y[8] y[9] y[10] y[11]
 y[12] y[13] y[14] y[15] y[16] y[17] y[18] y[19] y[20] y[21] y[22] y[23]
 y[24] y[25] y[26] y[27] y[28] y[29] y[30] y[31] y[32] y[33] y[34] y[35]
 y[36] y[37] y[38] y[39] y[40] y[41] y[42] y[43] y[44] y[45] y[46] y[47]
 y[48] y[49] y[50] y[51] y[52] y[53] y[54] y[55] y[56] y[57] y[58] y[59]
 y[60] y[61] y[62] y[63] y[64] y[65] y[66] y[67] y[68] y[69] y[70] y[71]
 y[72] y[73] y[74] y[75] y[76] y[77] y[78] y[79] y[80] y[81] y[82] y[83]
 y[84] y[85] y[86] y[87] y[88] y[89] y[90] y[91] y[92] y[93] y[94] y[95]
 y[96] y[97] y[98] y[99] u[0] u[1] u[2] u[3] u[4] u[5] u[6] u[7] u[8] u[9]
 u[10] u[11] u[12] u[13] u[14] u[15] u[16] u[17] u[18] u[19] u[20] u[21]
 u[22] u[23] u[24] u[25] u[26] u[27] u[28] u[29] u[30] u[31] u[32] u[33]
 u[34] u[35] u[36] u[37] u[38] u[39] u[40] u[41] u[42] u[43] u[44] u[45]
 u[46] u[47] u[48] u[49] u[50] u[51] u[52] u[53] u[54] u[55] u[56] u[57]
 u[58] u[59] u[60] u[61] u[62] u[63] u[64] u[65] u[66] u[67] u[68] u[69]
 u[70] u[71] u[72] u[73] u[74] u[75] u[76] u[77] u[78] u[79] u[80] u[81]
 u[82] u[83] u[84] u[85] u[86] u[87] u[88] u[89] u[90] u[91] u[92] u[93]
 u[94] u[95] u[96] u[97] u[98] u[99] z[0] z[1] z[2] z[3] z[4] z[5] z[6]
 z[7] z[8] z[9] z[10] z[11] z[12] z[13] z[14] z[15] z[16] z[17] z[18] z[19]
 z[20] z[21] z[22] z[23] z[24] z[25] z[26] z[27] z[28] z[29] z[30] z[31]
 z[32] z[33] z[34] z[35] z[36] z[37] z[38] z[39] z[40] z[41] z[42] z[43]
 z[44] z[45] z[46] z[47] z[48] z[49] z[50] z[51] z[52] z[53] z[54] z[55]
 z[56] z[57] z[58] z[59] z[60] z[61] z[62] z[63] z[64] z[65] z[66] z[67]
 z[68] z[69] z[70] z[71] z[72] z[73] z[74] z[75] z[76] z[77] z[78] z[79]
 z[80] z[81] z[82] z[83] z[84] z[85] z[86] z[87] z[88] z[89] z[90] z[91]
 z[92] z[93] z[94] z[95] z[96] z[97] z[98] z[99]
End
